
******************************************************************************
This program contains Ipopt, a library for large-scale nonlinear optimization.
 Ipopt is released as open source code under the Eclipse Public License (EPL).
         For more information visit http://projects.coin-or.org/Ipopt
******************************************************************************

This is Ipopt version 3.13.1, running with linear solver pardiso.

Starting derivative checker for first derivatives.


No errors detected by derivative checker.

Number of nonzeros in equality constraint Jacobian...:        0
Number of nonzeros in inequality constraint Jacobian.:       16
Number of nonzeros in Lagrangian Hessian.............:        0

Total number of variables............................:       16
                     variables with only lower bounds:        0
                variables with lower and upper bounds:       16
                     variables with only upper bounds:        0
Total number of equality constraints.................:        0
Total number of inequality constraints...............:        1
        inequality constraints with only lower bounds:        0
   inequality constraints with lower and upper bounds:        1
        inequality constraints with only upper bounds:        0

iter    objective    inf_pr   inf_du lg(mu)  ||d||  lg(rg) alpha_du alpha_pr  ls
   0  7.8975510e+04 1.50e-08 1.00e+02   0.0 0.00e+00    -  0.00e+00 0.00e+00   0
   1  7.9018616e+04 0.00e+00 4.64e+05   0.0 1.27e+01    -  4.85e-02 5.24e-03f  2
   2  7.4749505e+04 0.00e+00 2.67e+01  -0.4 6.52e-01    -  4.41e-01 2.86e-01f  1
   3  7.3580527e+04 0.00e+00 1.79e+01  -1.3 1.13e-01    -  1.00e+00 1.00e+00f  1
   4  7.2873815e+04 0.00e+00 1.10e+01  -2.0 1.66e-01    -  1.00e+00 9.63e-01f  1
   5  7.2768074e+04 0.00e+00 4.74e+00  -1.2 8.60e-02    -  1.00e+00 1.00e+00f  1
   6  7.2663498e+04 0.00e+00 3.74e+00  -2.4 3.94e-02    -  1.00e+00 1.00e+00f  1
   7  7.2585471e+04 0.00e+00 2.09e+00  -2.7 1.19e-01    -  1.00e+00 4.05e-01f  1
   8  7.2541481e+04 0.00e+00 1.31e+00  -3.1 7.95e-02    -  1.00e+00 6.38e-01f  1
   9  7.2525527e+04 0.00e+00 7.98e-01  -3.7 1.43e-02    -  1.00e+00 1.00e+00f  1
iter    objective    inf_pr   inf_du lg(mu)  ||d||  lg(rg) alpha_du alpha_pr  ls
  10  7.2514655e+04 0.00e+00 1.17e-01  -5.3 6.79e-03    -  1.00e+00 9.47e-01f  1
  11  7.2506855e+04 0.00e+00 4.57e-02  -7.1 2.63e-03    -  1.00e+00 9.67e-01f  1
  12  7.2500811e+04 0.00e+00 7.88e-02  -9.1 2.16e-03    -  1.00e+00 9.98e-01f  1
  13  7.2496287e+04 0.00e+00 6.98e-02 -11.0 1.48e-03    -  1.00e+00 1.00e+00f  1
  14  7.2492900e+04 0.00e+00 1.82e-02 -11.0 5.21e-04    -  1.00e+00 1.00e+00f  1
  15  7.2490364e+04 0.00e+00 1.00e-02 -11.0 5.66e-04    -  1.00e+00 1.00e+00f  1
  16  7.2488466e+04 0.00e+00 3.36e-02 -11.0 6.08e-04    -  1.00e+00 1.00e+00f  1
  17  7.2487042e+04 0.00e+00 3.92e-03 -11.0 3.64e-04    -  1.00e+00 1.00e+00f  1
  18  7.2485975e+04 0.00e+00 3.24e-03 -11.0 1.59e-04    -  1.00e+00 1.00e+00f  1
  19  7.2485175e+04 0.00e+00 4.28e-03 -11.0 1.04e-04    -  1.00e+00 1.00e+00f  1
iter    objective    inf_pr   inf_du lg(mu)  ||d||  lg(rg) alpha_du alpha_pr  ls
  20  7.2484576e+04 0.00e+00 1.28e-03 -11.0 8.15e-05    -  1.00e+00 1.00e+00f  1
  21  7.2484126e+04 0.00e+00 1.13e-03 -11.0 6.08e-05    -  1.00e+00 1.00e+00f  1
  22  7.2483789e+04 0.00e+00 1.93e-03 -11.0 4.45e-05    -  1.00e+00 1.00e+00f  1
  23  7.2483536e+04 0.00e+00 8.91e-04 -11.0 3.66e-05    -  1.00e+00 1.00e+00f  1
  24  7.2483347e+04 0.00e+00 6.27e-04 -11.0 2.56e-05    -  1.00e+00 1.00e+00f  1
  25  7.2483204e+04 0.00e+00 8.21e-04 -11.0 1.91e-05    -  1.00e+00 1.00e+00f  1
  26  7.2483098e+04 0.00e+00 3.40e-04 -11.0 1.49e-05    -  1.00e+00 1.00e+00f  1
  27  7.2483018e+04 0.00e+00 3.23e-04 -11.0 1.09e-05    -  1.00e+00 1.00e+00f  1
  28  7.2482958e+04 0.00e+00 4.81e-04 -11.0 8.15e-06    -  1.00e+00 1.00e+00f  1
  29  7.2482913e+04 0.00e+00 1.51e-04 -11.0 7.24e-06    -  1.00e+00 1.00e+00f  1
iter    objective    inf_pr   inf_du lg(mu)  ||d||  lg(rg) alpha_du alpha_pr  ls
  30  7.2482879e+04 0.00e+00 1.31e-04 -11.0 3.45e-06    -  1.00e+00 1.00e+00f  1
  31  7.2482854e+04 0.00e+00 4.58e-05 -11.0 4.03e-06    -  1.00e+00 1.00e+00f  1

Number of Iterations....: 31

                                   (scaled)                 (unscaled)
Objective...............:   4.4808117735273811e+02    7.2482853902720424e+04
Dual infeasibility......:   4.5782913915186066e-05    7.4059711237164719e-03
Constraint violation....:   0.0000000000000000e+00    0.0000000000000000e+00
Complementarity.........:   1.0000829711047842e-11    1.6177619491506115e-09
Overall NLP error.......:   6.9894345341045969e-08    7.4059711237164719e-03


Number of objective function evaluations             = 34
Number of objective gradient evaluations             = 32
Number of equality constraint evaluations            = 0
Number of inequality constraint evaluations          = 34
Number of equality constraint Jacobian evaluations   = 0
Number of inequality constraint Jacobian evaluations = 32
Number of Lagrangian Hessian evaluations             = 0
Total CPU secs in IPOPT (w/o function evaluations)   =      0.174
Total CPU secs in NLP function evaluations           =      0.040

EXIT: Optimal Solution Found.
